language ESSENCE' 1.0

letting boxes_PartitionAsSet_ExplicitR2_Occurrence be
        [[false, false, true; int(1..3)], [true, true, false; int(1..3)]; int(1..2)]
$ Visualisation for boxes_PartitionAsSet_ExplicitR2_Occurrence
$ _ _ T
$ T T _

